50228 48 58753 275449 54482 1
50118 41 50185 233785 55856 0.92
49104 58 70993 331170 56316 1
49530 52 63649 296254 55036 0.92
49962 48 58753 273674 54964 0.96
49702 44 53857 250774 55584 0.98
49768 47 57529 267999 55948 0.94
49156 48 58753 273553 55250 0.94
49832 47 57529 267856 55914 0.96
49450 55 67321 313640 55456 0.94
